proyfinal/src/viki/013/experimentInOfficeAgust.take6.output/2fefb48c-4c67-4658-9270-815f0738766f.als.out
Reading from standard input... Use '--help' for help.
============================[ Problem Statistics ]=============================
|                                                                             |
|  Number of variables:         87638                                         |
|  Number of clauses:          161767                                         |
|  Parse time:                   0.03 s                                       |
|                                                                             |
============================[ Search Statistics ]==============================
| Conflicts |          ORIGINAL         |          LEARNT          | Progress |
|           |    Vars  Clauses Literals |    Limit  Clauses Lit/Cl |          |
===============================================================================
|       100 |   63167   108074   269959 |    39627      100     28 | 27.923 % |
|       250 |   63167   108074   269959 |    43589      250     22 | 27.923 % |
|       475 |   63167   108074   269959 |    47948      475     23 | 27.923 % |
|       812 |   63167   108074   269959 |    52743      812     46 | 27.923 % |
|      1318 |   63141   107966   269712 |    58018     1316     52 | 27.953 % |
|      2077 |   63141   107966   269712 |    63819     2075     75 | 27.953 % |
|      3216 |   63082   107690   269071 |    70201     3181     85 | 28.020 % |
|      4924 |   63082   107690   269071 |    77222     4889     82 | 28.020 % |
|      7486 |   63082   107690   269071 |    84944     7451     88 | 28.020 % |
===============================================================================
restarts              : 46
conflicts             : 10545          (7185 /sec)
decisions             : 48334          (0.00 % random) (32934 /sec)
propagations          : 15698303       (10696589 /sec)
conflict literals     : 935818         (43.44 % deleted)
Memory used           : 27.19 MB
CPU time              : 1.4676 s

INDETERMINATE
